c generated by sgen
p cnf 81 172
-2 -3 -4 0
-1 -3 -4 0
-1 -2 -4 0
-1 -2 -3 0
-6 -7 -8 0
-5 -7 -8 0
-5 -6 -8 0
-5 -6 -7 0
-10 -11 -12 0
-9 -11 -12 0
-9 -10 -12 0
-9 -10 -11 0
-14 -15 -16 0
-13 -15 -16 0
-13 -14 -16 0
-13 -14 -15 0
-18 -19 -20 0
-17 -19 -20 0
-17 -18 -20 0
-17 -18 -19 0
-22 -23 -24 0
-21 -23 -24 0
-21 -22 -24 0
-21 -22 -23 0
-26 -27 -28 0
-25 -27 -28 0
-25 -26 -28 0
-25 -26 -27 0
-30 -31 -32 0
-29 -31 -32 0
-29 -30 -32 0
-29 -30 -31 0
-34 -35 -36 0
-33 -35 -36 0
-33 -34 -36 0
-33 -34 -35 0
-38 -39 -40 0
-37 -39 -40 0
-37 -38 -40 0
-37 -38 -39 0
-42 -43 -44 0
-41 -43 -44 0
-41 -42 -44 0
-41 -42 -43 0
-46 -47 -48 0
-45 -47 -48 0
-45 -46 -48 0
-45 -46 -47 0
-50 -51 -52 0
-49 -51 -52 0
-49 -50 -52 0
-49 -50 -51 0
-54 -55 -56 0
-53 -55 -56 0
-53 -54 -56 0
-53 -54 -55 0
-58 -59 -60 0
-57 -59 -60 0
-57 -58 -60 0
-57 -58 -59 0
-62 -63 -64 0
-61 -63 -64 0
-61 -62 -64 0
-61 -62 -63 0
-66 -67 -68 0
-65 -67 -68 0
-65 -66 -68 0
-65 -66 -67 0
-70 -71 -72 0
-69 -71 -72 0
-69 -70 -72 0
-69 -70 -71 0
-74 -75 -76 0
-73 -75 -76 0
-73 -74 -76 0
-73 -74 -75 0
-77 -78 -79 0
-77 -78 -80 0
-77 -78 -81 0
-77 -79 -80 0
-77 -79 -81 0
-77 -80 -81 0
-78 -79 -80 0
-78 -79 -81 0
-78 -80 -81 0
-79 -80 -81 0
58 29 64 0
48 29 64 0
48 58 64 0
48 58 29 0
17 62 27 0
74 62 27 0
74 17 27 0
74 17 62 0
20 6 10 0
66 6 10 0
66 20 10 0
66 20 6 0
23 34 55 0
61 34 55 0
61 23 55 0
61 23 34 0
44 24 9 0
47 24 9 0
47 44 9 0
47 44 24 0
52 81 31 0
40 81 31 0
40 52 31 0
40 52 81 0
32 7 25 0
36 7 25 0
36 32 25 0
36 32 7 0
2 30 76 0
22 30 76 0
22 2 76 0
22 2 30 0
63 12 77 0
72 12 77 0
72 63 77 0
72 63 12 0
39 65 21 0
60 65 21 0
60 39 21 0
60 39 65 0
78 73 67 0
46 73 67 0
46 78 67 0
46 78 73 0
80 19 15 0
57 19 15 0
57 80 15 0
57 80 19 0
14 49 68 0
35 49 68 0
35 14 68 0
35 14 49 0
43 51 70 0
59 51 70 0
59 43 70 0
59 43 51 0
13 71 5 0
75 71 5 0
75 13 5 0
75 13 71 0
53 18 37 0
42 18 37 0
42 53 37 0
42 53 18 0
79 3 33 0
41 3 33 0
41 79 33 0
41 79 3 0
11 54 16 0
26 54 16 0
26 11 16 0
26 11 54 0
8 50 1 0
56 50 1 0
56 8 1 0
56 8 50 0
69 28 4 0
69 28 45 0
69 28 38 0
69 4 45 0
69 4 38 0
69 45 38 0
28 4 45 0
28 4 38 0
28 45 38 0
4 45 38 0
